(set-logic QF_S)
(declare-fun var0 () String)
(declare-fun var1 () Int)
(declare-fun var2 () Int)
(declare-fun var3 () String)
(declare-fun var4 () String)
(declare-fun var5 () Bool)
(declare-fun var6 () String)
(declare-fun var7 () Int)
(assert (str.in.re (str.substr (str.substr var0 var1 var2) (str.to.int var3) (str.to.int var4)) (re.* re.allchar)))
(assert (not var5))
(assert (<= (str.len var6) (str.indexof var6 var4 var7)))
(assert (< (str.len var3) (str.len var0)))
(check-sat)